200 -367297
300 -366764
400 -366764
500 -364807
600 -362069
700 -362069
800 -362069
900 -362069
1000 -357876
1100 -357224
1200 -357224
1300 -357224
1400 -357224
1500 -357224
1600 -357224
1700 -351726
1800 -351726
1900 -351726
2000 -351726
2100 -351726
2200 -351726
2300 -351726
2400 -351726
2500 -351726
2600 -348930
2700 -348930
2800 -348930
2900 -347726
3000 -345767
3100 -345767
3200 -345767
3300 -345767
3400 -345767
3500 -345767
3600 -345767
3700 -345767
3800 -345767
3900 -345767
4000 -345767
4100 -344940
4200 -344940
4300 -344940
4400 -344940
